LatticeConstant 1.0 Ang
%block LatticeVectors
 14.32715600 0.00000000 0.00000000
 0.00000000 20.54121900 0.00000000
 0.00000000 0.00000000 10.81884300
%endblock LatticeVectors

NumberOfAtoms 28
AtomicCoordinatesFormat Ang
%block AtomicCoordinatesAndAtomicSpecies
  1.23000000  0.71000000  0.00000000 1 #  1: C
  2.16200000  1.24900000  0.00000000 2 #  2: H
  0.00000000  1.42000000  0.00000000 1 #  3: C
 -0.00000000  2.42000000  0.00000000 1 #  4: C
 -1.23000000  0.71000000  0.00000000 1 #  5: C
 -2.16200000  1.24900000  0.00000000 2 #  6: H
 -1.23000000 -0.71000000  0.00000000 1 #  7: C
 -2.16200000 -1.24900000  0.00000000 2 #  8: H
 -0.00000000 -1.42000000  0.00000000 1 #  9: C
 -0.00000000 -2.83978900  0.00000000 1 # 10: C
  1.23000000 -0.71000000  0.00000000 1 # 11: C
  2.16200000 -1.24900000  0.00000000 2 # 12: H
  1.21244000  3.12000000  0.00000000 3 # 13: O
 -1.21244000  3.12000000  0.00000000 3 # 14: O
 -0.00116100 -5.68021100  0.00000000 1 # 15: C
 -0.00116100 -7.08021100  0.00000000 4 # 16: N
  1.22923600 -4.97090000  0.00000000 1 # 17: C
  2.16155100 -5.51008200  0.00000000 2 # 18: H
  1.23039700 -3.55068900  0.00000000 1 # 19: C
  2.16357800 -3.01373600  0.00000000 2 # 20: H
 -1.22923600 -3.54910000  0.00000000 1 # 21: C
 -2.16155100 -3.00991800  0.00000000 2 # 22: H
 -1.23039700 -4.96931100  0.00000000 1 # 23: C
 -2.16357800 -5.50626400  0.00000000 2 # 24: H
  0.94435700 -7.40577900  0.00000000 2 # 25: H
 -0.46290700 -7.42121900  0.81884300 2 # 26: H
  1.96714800  2.46394000  0.00000000 2 # 27: H
  0.00000000  0.00000000  0.00000000 2 # 28: H
%endblock AtomicCoordinatesAndAtomicSpecies

NumberOfSpecies 4
%block ChemicalSpeciesLabel
 1 6 C
 2 1 H
 3 8 O
 4 7 N
%endblock ChemicalSpeciesLabel
